NAME: cuum780.tsp
TYPE: TSP
COMMENT: User-generated TSP file
DIMENSION: 780
EDGE_WEIGHT_TYPE: EUC_2D
NODE_COORD_SECTION
1 122.0 610.0
2 95.0 152.0
3 570.0 575.0
4 426.0 586.0
5 388.0 527.0
6 557.0 80.0
7 468.0 593.0
8 321.0 520.0
9 611.0 185.0
10 494.0 229.0
11 366.0 100.0
12 312.0 144.0
13 289.0 602.0
14 313.0 640.0
15 172.0 660.0
16 558.0 244.0
17 138.0 311.0
18 324.0 58.0
19 456.0 490.0
20 774.0 316.0
21 778.0 647.0
22 239.0 22.0
23 674.0 204.0
24 767.0 480.0
25 23.0 543.0
26 762.0 677.0
27 657.0 410.0
28 419.0 456.0
29 30.0 475.0
30 763.0 757.0
31 495.0 668.0
32 743.0 274.0
33 20.0 305.0
34 518.0 469.0
35 3.0 623.0
36 652.0 417.0
37 170.0 231.0
38 207.0 661.0
39 764.0 717.0
40 13.0 130.0
41 420.0 339.0
42 586.0 762.0
43 10.0 699.0
44 233.0 465.0
45 321.0 332.0
46 750.0 469.0
47 735.0 715.0
48 597.0 34.0
49 571.0 771.0
50 535.0 462.0
51 292.0 726.0
52 325.0 665.0
53 142.0 261.0
54 344.0 176.0
55 640.0 650.0
56 345.0 163.0
57 483.0 499.0
58 682.0 18.0
59 38.0 474.0
60 504.0 324.0
61 510.0 87.0
62 86.0 356.0
63 704.0 730.0
64 452.0 156.0
65 139.0 61.0
66 261.0 74.0
67 572.0 773.0
68 320.0 642.0
69 338.0 715.0
70 103.0 92.0
71 544.0 757.0
72 574.0 252.0
73 484.0 685.0
74 514.0 128.0
75 485.0 48.0
76 713.0 313.0
77 552.0 376.0
78 181.0 368.0
79 655.0 334.0
80 363.0 768.0
81 760.0 77.0
82 688.0 312.0
83 586.0 238.0
84 168.0 413.0
85 546.0 704.0
86 81.0 299.0
87 97.0 738.0
88 326.0 233.0
89 235.0 640.0
90 280.0 200.0
91 650.0 647.0
92 207.0 218.0
93 20.0 356.0
94 417.0 667.0
95 95.0 422.0
96 742.0 354.0
97 557.0 210.0
98 520.0 110.0
99 583.0 759.0
100 225.0 700.0
101 225.0 66.0
102 353.0 55.0
103 117.0 150.0
104 597.0 283.0
105 72.0 304.0
106 44.0 412.0
107 325.0 46.0
108 644.0 693.0
109 74.0 349.0
110 566.0 254.0
111 22.0 669.0
112 339.0 188.0
113 158.0 422.0
114 85.0 521.0
115 619.0 689.0
116 213.0 680.0
117 463.0 542.0
118 621.0 319.0
119 265.0 327.0
120 780.0 79.0
121 203.0 310.0
122 497.0 618.0
123 590.0 138.0
124 530.0 104.0
125 390.0 562.0
126 328.0 547.0
127 483.0 347.0
128 405.0 542.0
129 428.0 748.0
130 371.0 384.0
131 451.0 732.0
132 596.0 400.0
133 82.0 143.0
134 363.0 133.0
135 544.0 37.0
136 523.0 721.0
137 373.0 556.0
138 638.0 126.0
139 769.0 544.0
140 721.0 75.0
141 138.0 77.0
142 322.0 12.0
143 761.0 219.0
144 182.0 302.0
145 511.0 505.0
146 354.0 664.0
147 423.0 356.0
148 305.0 682.0
149 555.0 742.0
150 757.0 493.0
151 497.0 774.0
152 417.0 96.0
153 48.0 337.0
154 7.0 158.0
155 522.0 660.0
156 132.0 484.0
157 773.0 284.0
158 453.0 235.0
159 297.0 731.0
160 89.0 236.0
161 215.0 631.0
162 543.0 684.0
163 605.0 726.0
164 175.0 594.0
165 100.0 197.0
166 731.0 360.0
167 181.0 512.0
168 554.0 525.0
169 20.0 221.0
170 271.0 537.0
171 541.0 281.0
172 712.0 175.0
173 414.0 329.0
174 622.0 111.0
175 308.0 405.0
176 273.0 593.0
177 558.0 53.0
178 754.0 223.0
179 58.0 594.0
180 70.0 756.0
181 4.0 306.0
182 415.0 763.0
183 600.0 193.0
184 34.0 45.0
185 152.0 111.0
186 410.0 96.0
187 636.0 478.0
188 151.0 738.0
189 636.0 655.0
190 246.0 186.0
191 94.0 17.0
192 411.0 214.0
193 709.0 205.0
194 167.0 102.0
195 488.0 703.0
196 587.0 571.0
197 315.0 753.0
198 608.0 417.0
199 57.0 91.0
200 391.0 220.0
201 469.0 447.0
202 685.0 103.0
203 33.0 125.0
204 122.0 353.0
205 101.0 12.0
206 91.0 270.0
207 592.0 695.0
208 1.0 489.0
209 664.0 285.0
210 393.0 410.0
211 353.0 424.0
212 222.0 418.0
213 254.0 217.0
214 536.0 101.0
215 433.0 47.0
216 101.0 385.0
217 419.0 164.0
218 471.0 747.0
219 770.0 22.0
220 129.0 223.0
221 205.0 580.0
222 126.0 699.0
223 624.0 151.0
224 690.0 325.0
225 277.0 476.0
226 76.0 83.0
227 546.0 623.0
228 778.0 20.0
229 392.0 12.0
230 707.0 559.0
231 368.0 713.0
232 671.0 351.0
233 280.0 299.0
234 554.0 137.0
235 333.0 99.0
236 429.0 355.0
237 711.0 742.0
238 260.0 191.0
239 255.0 160.0
240 69.0 109.0
241 362.0 367.0
242 240.0 343.0
243 19.0 615.0
244 212.0 774.0
245 271.0 378.0
246 530.0 474.0
247 684.0 96.0
248 300.0 442.0
249 382.0 150.0
250 175.0 277.0
251 558.0 71.0
252 49.0 339.0
253 100.0 408.0
254 758.0 57.0
255 144.0 451.0
256 359.0 398.0
257 384.0 245.0
258 299.0 531.0
259 239.0 499.0
260 19.0 748.0
261 3.0 557.0
262 516.0 207.0
263 269.0 295.0
264 89.0 629.0
265 126.0 258.0
266 618.0 44.0
267 702.0 18.0
268 676.0 669.0
269 715.0 695.0
270 504.0 516.0
271 426.0 8.0
272 151.0 163.0
273 634.0 777.0
274 215.0 377.0
275 506.0 611.0
276 488.0 232.0
277 292.0 90.0
278 447.0 109.0
279 551.0 277.0
280 24.0 305.0
281 167.0 699.0
282 767.0 53.0
283 207.0 163.0
284 304.0 678.0
285 129.0 469.0
286 458.0 114.0
287 334.0 749.0
288 615.0 239.0
289 294.0 476.0
290 496.0 240.0
291 26.0 495.0
292 135.0 317.0
293 310.0 241.0
294 86.0 750.0
295 137.0 54.0
296 458.0 724.0
297 726.0 305.0
298 147.0 484.0
299 621.0 743.0
300 561.0 2.0
301 631.0 161.0
302 263.0 311.0
303 770.0 478.0
304 90.0 414.0
305 197.0 169.0
306 778.0 621.0
307 479.0 403.0
308 15.0 206.0
309 693.0 350.0
310 583.0 339.0
311 777.0 202.0
312 53.0 766.0
313 143.0 637.0
314 73.0 602.0
315 375.0 418.0
316 695.0 171.0
317 486.0 555.0
318 219.0 646.0
319 470.0 349.0
320 250.0 625.0
321 353.0 118.0
322 508.0 576.0
323 364.0 88.0
324 171.0 595.0
325 183.0 405.0
326 772.0 585.0
327 424.0 31.0
328 194.0 717.0
329 763.0 572.0
330 759.0 92.0
331 261.0 211.0
332 446.0 387.0
333 89.0 220.0
334 216.0 476.0
335 696.0 715.0
336 701.0 78.0
337 553.0 304.0
338 404.0 589.0
339 303.0 211.0
340 512.0 492.0
341 596.0 715.0
342 334.0 246.0
343 7.0 576.0
344 377.0 57.0
345 437.0 416.0
346 519.0 678.0
347 616.0 372.0
348 717.0 617.0
349 4.0 564.0
350 374.0 90.0
351 735.0 616.0
352 7.0 85.0
353 293.0 162.0
354 484.0 250.0
355 277.0 662.0
356 260.0 136.0
357 12.0 560.0
358 48.0 561.0
359 63.0 407.0
360 759.0 383.0
361 95.0 143.0
362 748.0 196.0
363 87.0 76.0
364 677.0 328.0
365 30.0 141.0
366 446.0 511.0
367 151.0 50.0
368 647.0 385.0
369 132.0 160.0
370 773.0 157.0
371 455.0 230.0
372 80.0 507.0
373 142.0 258.0
374 222.0 167.0
375 13.0 676.0
376 529.0 758.0
377 99.0 458.0
378 597.0 57.0
379 775.0 215.0
380 630.0 501.0
381 592.0 175.0
382 402.0 483.0
383 309.0 777.0
384 356.0 745.0
385 405.0 339.0
386 395.0 140.0
387 392.0 52.0
388 200.0 351.0
389 728.0 352.0
390 456.0 220.0
391 34.0 6.0
392 265.0 18.0
393 182.0 330.0
394 206.0 130.0
395 23.0 191.0
396 311.0 36.0
397 696.0 110.0
398 269.0 162.0
399 58.0 401.0
400 610.0 282.0
401 328.0 200.0
402 28.0 710.0
403 545.0 647.0
404 124.0 157.0
405 676.0 4.0
406 297.0 595.0
407 566.0 572.0
408 361.0 471.0
409 302.0 183.0
410 251.0 437.0
411 598.0 700.0
412 232.0 176.0
413 633.0 514.0
414 399.0 200.0
415 555.0 502.0
416 65.0 604.0
417 381.0 23.0
418 61.0 202.0
419 283.0 403.0
420 48.0 420.0
421 590.0 165.0
422 716.0 125.0
423 429.0 277.0
424 322.0 26.0
425 79.0 678.0
426 619.0 157.0
427 189.0 284.0
428 220.0 374.0
429 139.0 152.0
430 424.0 196.0
431 100.0 560.0
432 252.0 450.0
433 376.0 162.0
434 638.0 750.0
435 298.0 394.0
436 18.0 550.0
437 606.0 25.0
438 411.0 487.0
439 19.0 517.0
440 752.0 216.0
441 490.0 702.0
442 370.0 348.0
443 86.0 179.0
444 746.0 774.0
445 456.0 546.0
446 62.0 358.0
447 255.0 45.0
448 536.0 674.0
449 47.0 263.0
450 390.0 387.0
451 421.0 467.0
452 546.0 481.0
453 665.0 80.0
454 178.0 16.0
455 612.0 419.0
456 118.0 524.0
457 632.0 441.0
458 605.0 519.0
459 352.0 333.0
460 332.0 209.0
461 193.0 575.0
462 90.0 52.0
463 665.0 766.0
464 555.0 304.0
465 194.0 78.0
466 639.0 706.0
467 765.0 631.0
468 122.0 382.0
469 383.0 173.0
470 523.0 475.0
471 771.0 200.0
472 71.0 473.0
473 498.0 172.0
474 294.0 371.0
475 5.0 386.0
476 341.0 729.0
477 316.0 341.0
478 266.0 19.0
479 90.0 359.0
480 282.0 623.0
481 5.0 181.0
482 466.0 760.0
483 683.0 724.0
484 499.0 583.0
485 111.0 694.0
486 211.0 712.0
487 173.0 49.0
488 6.0 772.0
489 102.0 149.0
490 223.0 26.0
491 69.0 767.0
492 668.0 44.0
493 346.0 34.0
494 779.0 110.0
495 235.0 62.0
496 766.0 392.0
497 531.0 461.0
498 726.0 41.0
499 450.0 555.0
500 98.0 87.0
501 527.0 50.0
502 59.0 280.0
503 766.0 677.0
504 495.0 15.0
505 416.0 692.0
506 737.0 516.0
507 183.0 652.0
508 397.0 560.0
509 136.0 733.0
510 217.0 72.0
511 543.0 382.0
512 534.0 137.0
513 231.0 267.0
514 299.0 586.0
515 2.0 206.0
516 679.0 676.0
517 652.0 753.0
518 558.0 698.0
519 715.0 317.0
520 67.0 80.0
521 153.0 635.0
522 507.0 133.0
523 558.0 287.0
524 9.0 265.0
525 705.0 357.0
526 303.0 321.0
527 459.0 418.0
528 75.0 484.0
529 719.0 696.0
530 630.0 672.0
531 41.0 357.0
532 540.0 159.0
533 263.0 167.0
534 642.0 690.0
535 676.0 82.0
536 591.0 584.0
537 361.0 47.0
538 521.0 248.0
539 637.0 558.0
540 734.0 599.0
541 494.0 499.0
542 457.0 629.0
543 710.0 104.0
544 91.0 532.0
545 687.0 175.0
546 336.0 166.0
547 626.0 482.0
548 548.0 491.0
549 165.0 361.0
550 355.0 99.0
551 365.0 147.0
552 94.0 277.0
553 370.0 487.0
554 206.0 429.0
555 208.0 242.0
556 19.0 177.0
557 444.0 249.0
558 685.0 544.0
559 536.0 413.0
560 217.0 764.0
561 60.0 167.0
562 675.0 366.0
563 27.0 524.0
564 577.0 758.0
565 264.0 238.0
566 513.0 574.0
567 16.0 517.0
568 351.0 86.0
569 426.0 654.0
570 767.0 429.0
571 543.0 506.0
572 247.0 403.0
573 279.0 51.0
574 316.0 591.0
575 219.0 732.0
576 66.0 282.0
577 726.0 162.0
578 155.0 117.0
579 779.0 230.0
580 187.0 621.0
581 616.0 564.0
582 351.0 426.0
583 459.0 220.0
584 92.0 738.0
585 142.0 392.0
586 557.0 536.0
587 370.0 582.0
588 668.0 768.0
589 123.0 601.0
590 336.0 749.0
591 575.0 703.0
592 380.0 521.0
593 311.0 681.0
594 353.0 544.0
595 660.0 335.0
596 165.0 544.0
597 259.0 294.0
598 258.0 583.0
599 435.0 172.0
600 491.0 194.0
601 693.0 206.0
602 243.0 39.0
603 215.0 178.0
604 752.0 719.0
605 317.0 522.0
606 445.0 337.0
607 258.0 737.0
608 296.0 610.0
609 268.0 702.0
610 93.0 274.0
611 36.0 39.0
612 762.0 75.0
613 398.0 229.0
614 456.0 770.0
615 661.0 341.0
616 618.0 41.0
617 152.0 772.0
618 619.0 758.0
619 667.0 322.0
620 526.0 323.0
621 257.0 356.0
622 181.0 451.0
623 288.0 254.0
624 292.0 321.0
625 755.0 386.0
626 202.0 725.0
627 463.0 395.0
628 478.0 230.0
629 392.0 115.0
630 682.0 459.0
631 519.0 570.0
632 359.0 217.0
633 753.0 101.0
634 564.0 631.0
635 514.0 236.0
636 353.0 150.0
637 454.0 690.0
638 514.0 443.0
639 494.0 536.0
640 414.0 422.0
641 233.0 316.0
642 5.0 100.0
643 399.0 113.0
644 66.0 660.0
645 681.0 615.0
646 716.0 757.0
647 777.0 460.0
648 722.0 580.0
649 422.0 753.0
650 138.0 720.0
651 558.0 409.0
652 614.0 120.0
653 367.0 742.0
654 175.0 583.0
655 725.0 210.0
656 508.0 465.0
657 639.0 651.0
658 131.0 663.0
659 372.0 195.0
660 395.0 96.0
661 22.0 347.0
662 608.0 256.0
663 447.0 728.0
664 509.0 633.0
665 759.0 466.0
666 597.0 697.0
667 473.0 473.0
668 247.0 659.0
669 494.0 460.0
670 313.0 701.0
671 491.0 49.0
672 630.0 415.0
673 66.0 454.0
674 10.0 343.0
675 667.0 734.0
676 97.0 281.0
677 626.0 477.0
678 763.0 570.0
679 405.0 350.0
680 730.0 596.0
681 710.0 396.0
682 655.0 749.0
683 757.0 521.0
684 93.0 718.0
685 774.0 212.0
686 263.0 350.0
687 153.0 489.0
688 94.0 654.0
689 315.0 461.0
690 726.0 345.0
691 703.0 646.0
692 593.0 528.0
693 129.0 521.0
694 692.0 22.0
695 589.0 629.0
696 734.0 78.0
697 124.0 728.0
698 749.0 612.0
699 653.0 702.0
700 306.0 47.0
701 769.0 700.0
702 599.0 454.0
703 691.0 116.0
704 454.0 324.0
705 431.0 381.0
706 110.0 14.0
707 445.0 689.0
708 165.0 632.0
709 212.0 640.0
710 245.0 506.0
711 708.0 562.0
712 312.0 137.0
713 79.0 434.0
714 229.0 362.0
715 600.0 191.0
716 115.0 325.0
717 560.0 469.0
718 576.0 501.0
719 697.0 772.0
720 653.0 637.0
721 142.0 495.0
722 39.0 55.0
723 158.0 146.0
724 603.0 95.0
725 777.0 4.0
726 165.0 386.0
727 51.0 211.0
728 37.0 763.0
729 250.0 20.0
730 10.0 174.0
731 335.0 739.0
732 420.0 356.0
733 421.0 344.0
734 217.0 7.0
735 737.0 541.0
736 270.0 11.0
737 309.0 626.0
738 765.0 185.0
739 562.0 114.0
740 56.0 48.0
741 49.0 404.0
742 129.0 764.0
743 553.0 467.0
744 672.0 18.0
745 130.0 235.0
746 681.0 94.0
747 377.0 746.0
748 626.0 12.0
749 672.0 546.0
750 120.0 748.0
751 468.0 360.0
752 442.0 171.0
753 268.0 213.0
754 695.0 520.0
755 373.0 26.0
756 606.0 35.0
757 281.0 215.0
758 567.0 233.0
759 600.0 771.0
760 283.0 220.0
761 496.0 274.0
762 206.0 751.0
763 590.0 677.0
764 569.0 329.0
765 738.0 55.0
766 605.0 643.0
767 755.0 215.0
768 760.0 772.0
769 505.0 374.0
770 86.0 233.0
771 682.0 390.0
772 401.0 483.0
773 280.0 313.0
774 41.0 166.0
775 468.0 740.0
776 31.0 22.0
777 372.0 535.0
778 733.0 392.0
779 469.0 12.0
780 282.0 494.0
EOF





